NAME : LPS-n20-m42
COMMENT : (Lartu-Peter-Santi Plot, instance 6842 out of 39200. 20 customers.)
TYPE : CVRP
DIMENSION : 20
EDGE_WEIGHT_TYPE : EUC_2D
CAPACITY : 93
NODE_COORD_SECTION
 1 62 2
 2 65 29
 3 74 56
 4 70 8
 5 13 64
 6 53 0
 7 75 2
 8 32 46
 9 19 67
 10 55 42
 11 35 66
 12 5 65
 13 20 3
 14 24 64
 15 90 64
 16 47 82
 17 92 100
 18 97 5
 19 87 35
 20 28 62
DEMAND_SECTION
1 0
2 65
3 49
4 90
5 30
6 68
7 90
8 75
9 20
10 28
11 84
12 35
13 86
14 73
15 89
16 68
17 17
18 24
19 78
20 41
DEPOT_SECTION
 1
 -1
EOF
